NAME : n40w140.005.371.tour
COMMENT : Length = 371
COMMENT : Found by LKH [Keld Helsgaun] Tue May  2 05:19:04 2017
TYPE : TOUR
DIMENSION : 41
TOUR_SECTION
1
25
12
30
27
22
8
5
3
16
34
24
14
37
33
7
38
21
36
6
19
35
11
17
29
39
9
18
32
40
28
26
2
20
4
10
15
31
23
41
13
-1
EOF
